p cnf 12 22
1 2 3 0
-1 -2 3 0
1 -2 -3 0
-1 2 -3 0
4 5 6 0
-4 -5 6 0
4 -5 -6 0
-4 5 -6 0
7 8 9 0
-7 -8 9 0
7 -8 -9 0
-7 8 -9 0
10 11 12 0
-10 -11 12 0
10 -11 -12 0
-10 11 -12 0
1 4 7 0
2 5 8 0
3 6 9 0
1 4 10 0
2 5 11 0
3 6 12 0
